Traveling Salesman Problem/TSP_generados/Aleatorio1620390981_11.tsp
NAME: Aleatorio1620390981_11.tsp
COMMENT: Randomly generated scenario
TYPE: TSP
DIMENSION: 11
EDGE_WEIGHT_TYPE: ATT
NODE_COORD_SECTION
1 17.68 25.7
2 40.95 40.43
3 20.75 42.88
4 32.93 6.37
5 30.55 25.27
6 2.05 15.88
7 49.32 30.69
8 22.65 3.6
9 38.79 15.43
10 24.45 24.9
11 16.93 32.24
