Traveling Salesman Problem/TSP_generados/Aleatorio1620390981_11.opt.tour
NAME: Aleatorio1620390981_11.opt.tour
COMMENT: Optimal solution for Aleatorio1620390981_11 (155.14182859619268)
TYPE: TOUR
DIMENSION: 11
TOUR_SECTION
1 6 8 4 9 7 2 3 11 5 10
-1
EOF
